p cnf 92 668
-29 -30 0
-29 -31 0
-29 -32 0
-29 -33 0
-29 -34 0
-29 -35 0
-29 -36 0
-30 -31 0
-30 -32 0
-30 -33 0
-30 -34 0
-30 -35 0
-30 -36 0
-31 -32 0
-31 -33 0
-31 -34 0
-31 -35 0
-31 -36 0
-32 -33 0
-32 -34 0
-32 -35 0
-32 -36 0
-33 -34 0
-33 -35 0
-33 -36 0
-34 -35 0
-34 -36 0
-35 -36 0
29 30 31 32 33 34 35 36 0
-37 -38 0
-37 -39 0
-37 -40 0
-37 -41 0
-37 -42 0
-37 -43 0
-37 -44 0
-38 -39 0
-38 -40 0
-38 -41 0
-38 -42 0
-38 -43 0
-38 -44 0
-39 -40 0
-39 -41 0
-39 -42 0
-39 -43 0
-39 -44 0
-40 -41 0
-40 -42 0
-40 -43 0
-40 -44 0
-41 -42 0
-41 -43 0
-41 -44 0
-42 -43 0
-42 -44 0
-43 -44 0
37 38 39 40 41 42 43 44 0
-45 -46 0
-45 -47 0
-45 -48 0
-45 -49 0
-45 -50 0
-45 -51 0
-45 -52 0
-46 -47 0
-46 -48 0
-46 -49 0
-46 -50 0
-46 -51 0
-46 -52 0
-47 -48 0
-47 -49 0
-47 -50 0
-47 -51 0
-47 -52 0
-48 -49 0
-48 -50 0
-48 -51 0
-48 -52 0
-49 -50 0
-49 -51 0
-49 -52 0
-50 -51 0
-50 -52 0
-51 -52 0
45 46 47 48 49 50 51 52 0
-53 -54 0
-53 -55 0
-53 -56 0
-53 -57 0
-53 -58 0
-53 -59 0
-53 -60 0
-54 -55 0
-54 -56 0
-54 -57 0
-54 -58 0
-54 -59 0
-54 -60 0
-55 -56 0
-55 -57 0
-55 -58 0
-55 -59 0
-55 -60 0
-56 -57 0
-56 -58 0
-56 -59 0
-56 -60 0
-57 -58 0
-57 -59 0
-57 -60 0
-58 -59 0
-58 -60 0
-59 -60 0
53 54 55 56 57 58 59 60 0
-29 -37 0
-29 -45 0
-29 -53 0
-37 -45 0
-37 -53 0
-45 -53 0
-30 -38 0
-30 -46 0
-30 -54 0
-38 -46 0
-38 -54 0
-46 -54 0
-31 -39 0
-31 -47 0
-31 -55 0
-39 -47 0
-39 -55 0
-47 -55 0
-32 -40 0
-32 -48 0
-32 -56 0
-40 -48 0
-40 -56 0
-48 -56 0
-33 -41 0
-33 -49 0
-33 -57 0
-41 -49 0
-41 -57 0
-49 -57 0
-34 -42 0
-34 -50 0
-34 -58 0
-42 -50 0
-42 -58 0
-50 -58 0
-35 -43 0
-35 -51 0
-35 -59 0
-43 -51 0
-43 -59 0
-51 -59 0
-36 -44 0
-36 -52 0
-36 -60 0
-44 -52 0
-44 -60 0
-52 -60 0
1 -29 -38 0
1 -29 -46 0
1 -29 -54 0
1 -37 -30 0
1 -37 -46 0
1 -37 -54 0
1 -45 -30 0
1 -45 -38 0
1 -45 -54 0
1 -53 -30 0
1 -53 -38 0
1 -53 -46 0
2 -29 -39 0
2 -29 -47 0
2 -29 -55 0
2 -37 -31 0
2 -37 -47 0
2 -37 -55 0
2 -45 -31 0
2 -45 -39 0
2 -45 -55 0
2 -53 -31 0
2 -53 -39 0
2 -53 -47 0
3 -29 -40 0
3 -29 -48 0
3 -29 -56 0
3 -37 -32 0
3 -37 -48 0
3 -37 -56 0
3 -45 -32 0
3 -45 -40 0
3 -45 -56 0
3 -53 -32 0
3 -53 -40 0
3 -53 -48 0
4 -29 -41 0
4 -29 -49 0
4 -29 -57 0
4 -37 -33 0
4 -37 -49 0
4 -37 -57 0
4 -45 -33 0
4 -45 -41 0
4 -45 -57 0
4 -53 -33 0
4 -53 -41 0
4 -53 -49 0
5 -29 -42 0
5 -29 -50 0
5 -29 -58 0
5 -37 -34 0
5 -37 -50 0
5 -37 -58 0
5 -45 -34 0
5 -45 -42 0
5 -45 -58 0
5 -53 -34 0
5 -53 -42 0
5 -53 -50 0
6 -29 -43 0
6 -29 -51 0
6 -29 -59 0
6 -37 -35 0
6 -37 -51 0
6 -37 -59 0
6 -45 -35 0
6 -45 -43 0
6 -45 -59 0
6 -53 -35 0
6 -53 -43 0
6 -53 -51 0
7 -29 -44 0
7 -29 -52 0
7 -29 -60 0
7 -37 -36 0
7 -37 -52 0
7 -37 -60 0
7 -45 -36 0
7 -45 -44 0
7 -45 -60 0
7 -53 -36 0
7 -53 -44 0
7 -53 -52 0
8 -30 -39 0
8 -30 -47 0
8 -30 -55 0
8 -38 -31 0
8 -38 -47 0
8 -38 -55 0
8 -46 -31 0
8 -46 -39 0
8 -46 -55 0
8 -54 -31 0
8 -54 -39 0
8 -54 -47 0
9 -30 -40 0
9 -30 -48 0
9 -30 -56 0
9 -38 -32 0
9 -38 -48 0
9 -38 -56 0
9 -46 -32 0
9 -46 -40 0
9 -46 -56 0
9 -54 -32 0
9 -54 -40 0
9 -54 -48 0
10 -30 -41 0
10 -30 -49 0
10 -30 -57 0
10 -38 -33 0
10 -38 -49 0
10 -38 -57 0
10 -46 -33 0
10 -46 -41 0
10 -46 -57 0
10 -54 -33 0
10 -54 -41 0
10 -54 -49 0
11 -30 -42 0
11 -30 -50 0
11 -30 -58 0
11 -38 -34 0
11 -38 -50 0
11 -38 -58 0
11 -46 -34 0
11 -46 -42 0
11 -46 -58 0
11 -54 -34 0
11 -54 -42 0
11 -54 -50 0
12 -30 -43 0
12 -30 -51 0
12 -30 -59 0
12 -38 -35 0
12 -38 -51 0
12 -38 -59 0
12 -46 -35 0
12 -46 -43 0
12 -46 -59 0
12 -54 -35 0
12 -54 -43 0
12 -54 -51 0
13 -30 -44 0
13 -30 -52 0
13 -30 -60 0
13 -38 -36 0
13 -38 -52 0
13 -38 -60 0
13 -46 -36 0
13 -46 -44 0
13 -46 -60 0
13 -54 -36 0
13 -54 -44 0
13 -54 -52 0
14 -31 -40 0
14 -31 -48 0
14 -31 -56 0
14 -39 -32 0
14 -39 -48 0
14 -39 -56 0
14 -47 -32 0
14 -47 -40 0
14 -47 -56 0
14 -55 -32 0
14 -55 -40 0
14 -55 -48 0
15 -31 -41 0
15 -31 -49 0
15 -31 -57 0
15 -39 -33 0
15 -39 -49 0
15 -39 -57 0
15 -47 -33 0
15 -47 -41 0
15 -47 -57 0
15 -55 -33 0
15 -55 -41 0
15 -55 -49 0
16 -31 -42 0
16 -31 -50 0
16 -31 -58 0
16 -39 -34 0
16 -39 -50 0
16 -39 -58 0
16 -47 -34 0
16 -47 -42 0
16 -47 -58 0
16 -55 -34 0
16 -55 -42 0
16 -55 -50 0
17 -31 -43 0
17 -31 -51 0
17 -31 -59 0
17 -39 -35 0
17 -39 -51 0
17 -39 -59 0
17 -47 -35 0
17 -47 -43 0
17 -47 -59 0
17 -55 -35 0
17 -55 -43 0
17 -55 -51 0
18 -31 -44 0
18 -31 -52 0
18 -31 -60 0
18 -39 -36 0
18 -39 -52 0
18 -39 -60 0
18 -47 -36 0
18 -47 -44 0
18 -47 -60 0
18 -55 -36 0
18 -55 -44 0
18 -55 -52 0
19 -32 -41 0
19 -32 -49 0
19 -32 -57 0
19 -40 -33 0
19 -40 -49 0
19 -40 -57 0
19 -48 -33 0
19 -48 -41 0
19 -48 -57 0
19 -56 -33 0
19 -56 -41 0
19 -56 -49 0
20 -32 -42 0
20 -32 -50 0
20 -32 -58 0
20 -40 -34 0
20 -40 -50 0
20 -40 -58 0
20 -48 -34 0
20 -48 -42 0
20 -48 -58 0
20 -56 -34 0
20 -56 -42 0
20 -56 -50 0
21 -32 -43 0
21 -32 -51 0
21 -32 -59 0
21 -40 -35 0
21 -40 -51 0
21 -40 -59 0
21 -48 -35 0
21 -48 -43 0
21 -48 -59 0
21 -56 -35 0
21 -56 -43 0
21 -56 -51 0
22 -32 -44 0
22 -32 -52 0
22 -32 -60 0
22 -40 -36 0
22 -40 -52 0
22 -40 -60 0
22 -48 -36 0
22 -48 -44 0
22 -48 -60 0
22 -56 -36 0
22 -56 -44 0
22 -56 -52 0
23 -33 -42 0
23 -33 -50 0
23 -33 -58 0
23 -41 -34 0
23 -41 -50 0
23 -41 -58 0
23 -49 -34 0
23 -49 -42 0
23 -49 -58 0
23 -57 -34 0
23 -57 -42 0
23 -57 -50 0
24 -33 -43 0
24 -33 -51 0
24 -33 -59 0
24 -41 -35 0
24 -41 -51 0
24 -41 -59 0
24 -49 -35 0
24 -49 -43 0
24 -49 -59 0
24 -57 -35 0
24 -57 -43 0
24 -57 -51 0
25 -33 -44 0
25 -33 -52 0
25 -33 -60 0
25 -41 -36 0
25 -41 -52 0
25 -41 -60 0
25 -49 -36 0
25 -49 -44 0
25 -49 -60 0
25 -57 -36 0
25 -57 -44 0
25 -57 -52 0
26 -34 -43 0
26 -34 -51 0
26 -34 -59 0
26 -42 -35 0
26 -42 -51 0
26 -42 -59 0
26 -50 -35 0
26 -50 -43 0
26 -50 -59 0
26 -58 -35 0
26 -58 -43 0
26 -58 -51 0
27 -34 -44 0
27 -34 -52 0
27 -34 -60 0
27 -42 -36 0
27 -42 -52 0
27 -42 -60 0
27 -50 -36 0
27 -50 -44 0
27 -50 -60 0
27 -58 -36 0
27 -58 -44 0
27 -58 -52 0
28 -35 -44 0
28 -35 -52 0
28 -35 -60 0
28 -43 -36 0
28 -43 -52 0
28 -43 -60 0
28 -51 -36 0
28 -51 -44 0
28 -51 -60 0
28 -59 -36 0
28 -59 -44 0
28 -59 -52 0
-61 -62 0
-61 -63 0
-61 -64 0
-62 -63 0
-62 -64 0
-63 -64 0
61 62 63 64 0
-65 -66 0
-65 -67 0
-65 -68 0
-66 -67 0
-66 -68 0
-67 -68 0
65 66 67 68 0
-69 -70 0
-69 -71 0
-69 -72 0
-70 -71 0
-70 -72 0
-71 -72 0
69 70 71 72 0
-73 -74 0
-73 -75 0
-73 -76 0
-74 -75 0
-74 -76 0
-75 -76 0
73 74 75 76 0
-77 -78 0
-77 -79 0
-77 -80 0
-78 -79 0
-78 -80 0
-79 -80 0
77 78 79 80 0
-81 -82 0
-81 -83 0
-81 -84 0
-82 -83 0
-82 -84 0
-83 -84 0
81 82 83 84 0
-85 -86 0
-85 -87 0
-85 -88 0
-86 -87 0
-86 -88 0
-87 -88 0
85 86 87 88 0
-89 -90 0
-89 -91 0
-89 -92 0
-90 -91 0
-90 -92 0
-91 -92 0
89 90 91 92 0
-1 -61 -65 0
-1 -62 -66 0
-1 -63 -67 0
-1 -64 -68 0
-2 -61 -69 0
-2 -62 -70 0
-2 -63 -71 0
-2 -64 -72 0
-3 -61 -73 0
-3 -62 -74 0
-3 -63 -75 0
-3 -64 -76 0
-4 -61 -77 0
-4 -62 -78 0
-4 -63 -79 0
-4 -64 -80 0
-5 -61 -81 0
-5 -62 -82 0
-5 -63 -83 0
-5 -64 -84 0
-6 -61 -85 0
-6 -62 -86 0
-6 -63 -87 0
-6 -64 -88 0
-7 -61 -89 0
-7 -62 -90 0
-7 -63 -91 0
-7 -64 -92 0
-8 -65 -69 0
-8 -66 -70 0
-8 -67 -71 0
-8 -68 -72 0
-9 -65 -73 0
-9 -66 -74 0
-9 -67 -75 0
-9 -68 -76 0
-10 -65 -77 0
-10 -66 -78 0
-10 -67 -79 0
-10 -68 -80 0
-11 -65 -81 0
-11 -66 -82 0
-11 -67 -83 0
-11 -68 -84 0
-12 -65 -85 0
-12 -66 -86 0
-12 -67 -87 0
-12 -68 -88 0
-13 -65 -89 0
-13 -66 -90 0
-13 -67 -91 0
-13 -68 -92 0
-14 -69 -73 0
-14 -70 -74 0
-14 -71 -75 0
-14 -72 -76 0
-15 -69 -77 0
-15 -70 -78 0
-15 -71 -79 0
-15 -72 -80 0
-16 -69 -81 0
-16 -70 -82 0
-16 -71 -83 0
-16 -72 -84 0
-17 -69 -85 0
-17 -70 -86 0
-17 -71 -87 0
-17 -72 -88 0
-18 -69 -89 0
-18 -70 -90 0
-18 -71 -91 0
-18 -72 -92 0
-19 -73 -77 0
-19 -74 -78 0
-19 -75 -79 0
-19 -76 -80 0
-20 -73 -81 0
-20 -74 -82 0
-20 -75 -83 0
-20 -76 -84 0
-21 -73 -85 0
-21 -74 -86 0
-21 -75 -87 0
-21 -76 -88 0
-22 -73 -89 0
-22 -74 -90 0
-22 -75 -91 0
-22 -76 -92 0
-23 -77 -81 0
-23 -78 -82 0
-23 -79 -83 0
-23 -80 -84 0
-24 -77 -85 0
-24 -78 -86 0
-24 -79 -87 0
-24 -80 -88 0
-25 -77 -89 0
-25 -78 -90 0
-25 -79 -91 0
-25 -80 -92 0
-26 -81 -85 0
-26 -82 -86 0
-26 -83 -87 0
-26 -84 -88 0
-27 -81 -89 0
-27 -82 -90 0
-27 -83 -91 0
-27 -84 -92 0
-28 -85 -89 0
-28 -86 -90 0
-28 -87 -91 0
-28 -88 -92 0